TCS_Benchmarks/redos_fix/corpus2_output_distinct_4590_4589_16_0.smt2
(set-logic QF_S)
(declare-const x String)
(assert (str.in.re x (re.inter  (re.++ (re.* (re.union (re.range "\u{00}" "\u{09}") (re.range "\u{0b}" "\u{0c}") (re.range "\u{0e}" "\u{84}") (re.range "\u{86}" "\u{ff}")) ) (re.+ (re.range "\u{30}" "\u{39}") ))  (re.++ (re.* (re.union (re.range "\u{00}" "\u{09}") (re.range "\u{0b}" "\u{0c}") (re.range "\u{0e}" "\u{84}") (re.range "\u{86}" "\u{ff}")) ) (re.++  (re.++  (re.++  (str.to.re "\u{3c}") (re.++  (str.to.re "\u{62}")  (str.to.re "\u{3e}"))) (re.++ (re.+ (re.range "\u{30}" "\u{39}") ) (re.++  (re.++  (str.to.re "\u{3c}") (re.++  (str.to.re "\u{2f}") (re.++  (str.to.re "\u{62}") (re.++  (str.to.re "\u{3e}") (re.++  (str.to.re "\u{20}") (re.++  (str.to.re "\u{62}") (re.++  (str.to.re "\u{79}") (re.++  (str.to.re "\u{74}") (re.++  (str.to.re "\u{65}") (re.++  (str.to.re "\u{73}") (re.++  (str.to.re "\u{2c}") (re.++  (str.to.re "\u{20}") (re.++  (str.to.re "\u{63}") (re.++  (str.to.re "\u{75}") (re.++  (str.to.re "\u{72}") (re.++  (str.to.re "\u{72}") (re.++  (str.to.re "\u{65}") (re.++  (str.to.re "\u{6e}") (re.++  (str.to.re "\u{74}") (re.++  (str.to.re "\u{20}") (re.++  (str.to.re "\u{73}") (re.++  (str.to.re "\u{65}") (re.++  (str.to.re "\u{73}") (re.++  (str.to.re "\u{73}") (re.++  (str.to.re "\u{69}") (re.++  (str.to.re "\u{6f}") (re.++  (str.to.re "\u{6e}") (re.++  (str.to.re "\u{73}") (re.++  (str.to.re "\u{3a}") (re.++  (str.to.re "\u{20}") (re.++  (str.to.re "\u{3c}") (re.++  (str.to.re "\u{62}")  (str.to.re "\u{3e}"))))))))))))))))))))))))))))))))) (re.++ (re.+ (re.range "\u{30}" "\u{39}") )  (re.++  (str.to.re "\u{3c}") (re.++  (str.to.re "\u{2f}") (re.++  (str.to.re "\u{62}") (re.++  (str.to.re "\u{3e}") (re.++  (str.to.re "\u{3c}") (re.++  (str.to.re "\u{62}") (re.++  (str.to.re "\u{72}") (re.++  (str.to.re "\u{3e}") (re.++  (str.to.re "\u{73}") (re.++  (str.to.re "\u{75}") (re.++  (str.to.re "\u{62}") (re.++  (str.to.re "\u{63}") (re.++  (str.to.re "\u{61}") (re.++  (str.to.re "\u{63}") (re.++  (str.to.re "\u{68}") (re.++  (str.to.re "\u{65}") (re.++  (str.to.re "\u{73}") (re.++  (str.to.re "\u{3a}") (re.++  (str.to.re "\u{20}") (re.++  (str.to.re "\u{3c}") (re.++  (str.to.re "\u{62}")  (str.to.re "\u{3e}")))))))))))))))))))))))))) (re.+ (re.range "\u{30}" "\u{39}") ))) )))
(check-sat)
(get-model)