TCS_Benchmarks/redos_fix/corpus2_output_distinct_4590_4589_16_0.txt
(.*)([0-9]+)
(.*)((<b>)([0-9]+)(<\/b> bytes, current sessions: <b>)([0-9]+)(<\/b><br>subcaches: <b>))([0-9]+)